mapa = [|
         9,9,9,9,9,9,9,9,9|
         9,8,8,8,8,8,8,8,9|
         9,8,8,8,4,8,8,8,9|
         9,8,1,9,9,9,1,8,9|
         9,8,8,8,8,8,8,8,9|
         9,9,9,9,9,9,9,9,9|];
dimx = 6;
dimy = 9;
filav = 5;
colav = 5;
